data/lp_files/pEFS/122_5.lp
\ Model foo
\ LP format - for model browsing. Use MPS format to capture full model detail.
Minimize
  z
Subject To
 allocateEach[1]: x[1,1] + x[2,1] + x[3,1] + x[4,1] + x[5,1] + x[6,1]
   + x[7,1] = 1
 allocateEach[2]: x[1,2] + x[2,2] + x[3,2] + x[4,2] + x[5,2] + x[6,2]
   + x[7,2] = 1
 allocateAllCash: cashProportion[1] + cashProportion[2] + cashProportion[3]
   + cashProportion[4] + cashProportion[5] + cashProportion[6]
   + cashProportion[7] = 1
 findWorstP[1,2]: z + 0.1641946253625965 cashProportion[1]
   - 0.1641946253625965 cashProportion[2] + 0.5025450166931202 x[1,1]
   + 0.3332603579442833 x[1,2] - 0.5025450166931202 x[2,1]
   - 0.3332603579442833 x[2,2] >= 0
 findWorstP[1,3]: z + 0.1641946253625965 cashProportion[1]
   - 0.1641946253625965 cashProportion[3] + 0.5025450166931202 x[1,1]
   + 0.3332603579442833 x[1,2] - 0.5025450166931202 x[3,1]
   - 0.3332603579442833 x[3,2] >= 0
 findWorstP[1,4]: z + 0.1641946253625965 cashProportion[1]
   - 0.1641946253625965 cashProportion[4] + 0.5025450166931202 x[1,1]
   + 0.3332603579442833 x[1,2] - 0.5025450166931202 x[4,1]
   - 0.3332603579442833 x[4,2] >= 0
 findWorstP[1,5]: z + 0.1641946253625965 cashProportion[1]
   - 0.1641946253625965 cashProportion[5] + 0.5025450166931202 x[1,1]
   + 0.3332603579442833 x[1,2] - 0.5025450166931202 x[5,1]
   - 0.3332603579442833 x[5,2] >= 0
 findWorstP[1,6]: z + 0.1641946253625965 cashProportion[1]
   - 0.1641946253625965 cashProportion[6] + 0.5025450166931202 x[1,1]
   + 0.3332603579442833 x[1,2] - 0.5025450166931202 x[6,1]
   - 0.3332603579442833 x[6,2] >= 0
 findWorstP[1,7]: z + 0.1641946253625965 cashProportion[1]
   - 0.1641946253625965 cashProportion[7] + 0.5025450166931202 x[1,1]
   + 0.3332603579442833 x[1,2] - 0.5025450166931202 x[7,1]
   - 0.3332603579442833 x[7,2] >= 0
 findWorstP[2,1]: z - 0.410958904109589 cashProportion[1]
   + 0.410958904109589 cashProportion[2] - 0.5638356164383561 x[1,1]
   - 0.0252054794520548 x[1,2] + 0.5638356164383561 x[2,1]
   + 0.0252054794520548 x[2,2] >= 0
 findWorstP[2,3]: z + 0.410958904109589 cashProportion[2]
   - 0.410958904109589 cashProportion[3] + 0.5638356164383561 x[2,1]
   + 0.0252054794520548 x[2,2] - 0.5638356164383561 x[3,1]
   - 0.0252054794520548 x[3,2] >= 0
 findWorstP[2,4]: z + 0.410958904109589 cashProportion[2]
   - 0.410958904109589 cashProportion[4] + 0.5638356164383561 x[2,1]
   + 0.0252054794520548 x[2,2] - 0.5638356164383561 x[4,1]
   - 0.0252054794520548 x[4,2] >= 0
 findWorstP[2,5]: z + 0.410958904109589 cashProportion[2]
   - 0.410958904109589 cashProportion[5] + 0.5638356164383561 x[2,1]
   + 0.0252054794520548 x[2,2] - 0.5638356164383561 x[5,1]
   - 0.0252054794520548 x[5,2] >= 0
 findWorstP[2,6]: z + 0.410958904109589 cashProportion[2]
   - 0.410958904109589 cashProportion[6] + 0.5638356164383561 x[2,1]
   + 0.0252054794520548 x[2,2] - 0.5638356164383561 x[6,1]
   - 0.0252054794520548 x[6,2] >= 0
 findWorstP[2,7]: z + 0.410958904109589 cashProportion[2]
   - 0.410958904109589 cashProportion[7] + 0.5638356164383561 x[2,1]
   + 0.0252054794520548 x[2,2] - 0.5638356164383561 x[7,1]
   - 0.0252054794520548 x[7,2] >= 0
 findWorstP[3,1]: z - 0.2857959416976278 cashProportion[1]
   + 0.2857959416976278 cashProportion[3] - 0.6498047061065066 x[1,1]
   - 0.0643993521958655 x[1,2] + 0.6498047061065066 x[3,1]
   + 0.0643993521958655 x[3,2] >= 0
 findWorstP[3,2]: z - 0.2857959416976278 cashProportion[2]
   + 0.2857959416976278 cashProportion[3] - 0.6498047061065066 x[2,1]
   - 0.0643993521958655 x[2,2] + 0.6498047061065066 x[3,1]
   + 0.0643993521958655 x[3,2] >= 0
 findWorstP[3,4]: z + 0.2857959416976278 cashProportion[3]
   - 0.2857959416976278 cashProportion[4] + 0.6498047061065066 x[3,1]
   + 0.0643993521958655 x[3,2] - 0.6498047061065066 x[4,1]
   - 0.0643993521958655 x[4,2] >= 0
 findWorstP[3,5]: z + 0.2857959416976278 cashProportion[3]
   - 0.2857959416976278 cashProportion[5] + 0.6498047061065066 x[3,1]
   + 0.0643993521958655 x[3,2] - 0.6498047061065066 x[5,1]
   - 0.0643993521958655 x[5,2] >= 0
 findWorstP[3,6]: z + 0.2857959416976278 cashProportion[3]
   - 0.2857959416976278 cashProportion[6] + 0.6498047061065066 x[3,1]
   + 0.0643993521958655 x[3,2] - 0.6498047061065066 x[6,1]
   - 0.0643993521958655 x[6,2] >= 0
 findWorstP[3,7]: z + 0.2857959416976278 cashProportion[3]
   - 0.2857959416976278 cashProportion[7] + 0.6498047061065066 x[3,1]
   + 0.0643993521958655 x[3,2] - 0.6498047061065066 x[7,1]
   - 0.0643993521958655 x[7,2] >= 0
 findWorstP[4,1]: z - 0.3003604325190228 cashProportion[1]
   + 0.3003604325190228 cashProportion[4] - 0.1240488586303564 x[1,1]
   - 0.5755907088506207 x[1,2] + 0.1240488586303564 x[4,1]
   + 0.5755907088506207 x[4,2] >= 0
 findWorstP[4,2]: z - 0.3003604325190228 cashProportion[2]
   + 0.3003604325190228 cashProportion[4] - 0.1240488586303564 x[2,1]
   - 0.5755907088506207 x[2,2] + 0.1240488586303564 x[4,1]
   + 0.5755907088506207 x[4,2] >= 0
 findWorstP[4,3]: z - 0.3003604325190228 cashProportion[3]
   + 0.3003604325190228 cashProportion[4] - 0.1240488586303564 x[3,1]
   - 0.5755907088506207 x[3,2] + 0.1240488586303564 x[4,1]
   + 0.5755907088506207 x[4,2] >= 0
 findWorstP[4,5]: z + 0.3003604325190228 cashProportion[4]
   - 0.3003604325190228 cashProportion[5] + 0.1240488586303564 x[4,1]
   + 0.5755907088506207 x[4,2] - 0.1240488586303564 x[5,1]
   - 0.5755907088506207 x[5,2] >= 0
 findWorstP[4,6]: z + 0.3003604325190228 cashProportion[4]
   - 0.3003604325190228 cashProportion[6] + 0.1240488586303564 x[4,1]
   + 0.5755907088506207 x[4,2] - 0.1240488586303564 x[6,1]
   - 0.5755907088506207 x[6,2] >= 0
 findWorstP[4,7]: z + 0.3003604325190228 cashProportion[4]
   - 0.3003604325190228 cashProportion[7] + 0.1240488586303564 x[4,1]
   + 0.5755907088506207 x[4,2] - 0.1240488586303564 x[7,1]
   - 0.5755907088506207 x[7,2] >= 0
 findWorstP[5,1]: z - 0.3027856277755349 cashProportion[1]
   + 0.3027856277755349 cashProportion[5] - 0.1657246669358095 x[1,1]
   - 0.5314897052886557 x[1,2] + 0.1657246669358095 x[5,1]
   + 0.5314897052886557 x[5,2] >= 0
 findWorstP[5,2]: z - 0.3027856277755349 cashProportion[2]
   + 0.3027856277755349 cashProportion[5] - 0.1657246669358095 x[2,1]
   - 0.5314897052886557 x[2,2] + 0.1657246669358095 x[5,1]
   + 0.5314897052886557 x[5,2] >= 0
 findWorstP[5,3]: z - 0.3027856277755349 cashProportion[3]
   + 0.3027856277755349 cashProportion[5] - 0.1657246669358095 x[3,1]
   - 0.5314897052886557 x[3,2] + 0.1657246669358095 x[5,1]
   + 0.5314897052886557 x[5,2] >= 0
 findWorstP[5,4]: z - 0.3027856277755349 cashProportion[4]
   + 0.3027856277755349 cashProportion[5] - 0.1657246669358095 x[4,1]
   - 0.5314897052886557 x[4,2] + 0.1657246669358095 x[5,1]
   + 0.5314897052886557 x[5,2] >= 0
 findWorstP[5,6]: z + 0.3027856277755349 cashProportion[5]
   - 0.3027856277755349 cashProportion[6] + 0.1657246669358095 x[5,1]
   + 0.5314897052886557 x[5,2] - 0.1657246669358095 x[6,1]
   - 0.5314897052886557 x[6,2] >= 0
 findWorstP[5,7]: z + 0.3027856277755349 cashProportion[5]
   - 0.3027856277755349 cashProportion[7] + 0.1657246669358095 x[5,1]
   + 0.5314897052886557 x[5,2] - 0.1657246669358095 x[7,1]
   - 0.5314897052886557 x[7,2] >= 0
 findWorstP[6,1]: z - 0.1748048013052092 cashProportion[1]
   + 0.1748048013052092 cashProportion[6] - 0.2498543293322457 x[1,1]
   - 0.5753408693625451 x[1,2] + 0.2498543293322457 x[6,1]
   + 0.5753408693625451 x[6,2] >= 0
 findWorstP[6,2]: z - 0.1748048013052092 cashProportion[2]
   + 0.1748048013052092 cashProportion[6] - 0.2498543293322457 x[2,1]
   - 0.5753408693625451 x[2,2] + 0.2498543293322457 x[6,1]
   + 0.5753408693625451 x[6,2] >= 0
 findWorstP[6,3]: z - 0.1748048013052092 cashProportion[3]
   + 0.1748048013052092 cashProportion[6] - 0.2498543293322457 x[3,1]
   - 0.5753408693625451 x[3,2] + 0.2498543293322457 x[6,1]
   + 0.5753408693625451 x[6,2] >= 0
 findWorstP[6,4]: z - 0.1748048013052092 cashProportion[4]
   + 0.1748048013052092 cashProportion[6] - 0.2498543293322457 x[4,1]
   - 0.5753408693625451 x[4,2] + 0.2498543293322457 x[6,1]
   + 0.5753408693625451 x[6,2] >= 0
 findWorstP[6,5]: z - 0.1748048013052092 cashProportion[5]
   + 0.1748048013052092 cashProportion[6] - 0.2498543293322457 x[5,1]
   - 0.5753408693625451 x[5,2] + 0.2498543293322457 x[6,1]
   + 0.5753408693625451 x[6,2] >= 0
 findWorstP[6,7]: z + 0.1748048013052092 cashProportion[6]
   - 0.1748048013052092 cashProportion[7] + 0.2498543293322457 x[6,1]
   + 0.5753408693625451 x[6,2] - 0.2498543293322457 x[7,1]
   - 0.5753408693625451 x[7,2] >= 0
 findWorstP[7,1]: z - 0.1482359916987845 cashProportion[1]
   + 0.1482359916987845 cashProportion[7] - 0.400286589583951 x[1,1]
   - 0.4514774187172645 x[1,2] + 0.400286589583951 x[7,1]
   + 0.4514774187172645 x[7,2] >= 0
 findWorstP[7,2]: z - 0.1482359916987845 cashProportion[2]
   + 0.1482359916987845 cashProportion[7] - 0.400286589583951 x[2,1]
   - 0.4514774187172645 x[2,2] + 0.400286589583951 x[7,1]
   + 0.4514774187172645 x[7,2] >= 0
 findWorstP[7,3]: z - 0.1482359916987845 cashProportion[3]
   + 0.1482359916987845 cashProportion[7] - 0.400286589583951 x[3,1]
   - 0.4514774187172645 x[3,2] + 0.400286589583951 x[7,1]
   + 0.4514774187172645 x[7,2] >= 0
 findWorstP[7,4]: z - 0.1482359916987845 cashProportion[4]
   + 0.1482359916987845 cashProportion[7] - 0.400286589583951 x[4,1]
   - 0.4514774187172645 x[4,2] + 0.400286589583951 x[7,1]
   + 0.4514774187172645 x[7,2] >= 0
 findWorstP[7,5]: z - 0.1482359916987845 cashProportion[5]
   + 0.1482359916987845 cashProportion[7] - 0.400286589583951 x[5,1]
   - 0.4514774187172645 x[5,2] + 0.400286589583951 x[7,1]
   + 0.4514774187172645 x[7,2] >= 0
 findWorstP[7,6]: z - 0.1482359916987845 cashProportion[6]
   + 0.1482359916987845 cashProportion[7] - 0.400286589583951 x[6,1]
   - 0.4514774187172645 x[6,2] + 0.400286589583951 x[7,1]
   + 0.4514774187172645 x[7,2] >= 0
Bounds
 z <= 1
 -infinity <= cashProportion[1] <= 1
 -infinity <= cashProportion[2] <= 1
 -infinity <= cashProportion[3] <= 1
 -infinity <= cashProportion[4] <= 1
 -infinity <= cashProportion[5] <= 1
 -infinity <= cashProportion[6] <= 1
 -infinity <= cashProportion[7] <= 1
Binaries
 x[1,1] x[1,2] x[2,1] x[2,2] x[3,1] x[3,2] x[4,1] x[4,2] x[5,1] x[5,2]
 x[6,1] x[6,2] x[7,1] x[7,2]
End
