data/mps_files/q3/122_5.mps
NAME foo
ROWS
 N  OBJ
 E  allocateEach[1]
 E  allocateEach[2]
 E  allocateAllCash
 G  findWorstP[1,2]
 G  findWorstP[1,3]
 G  findWorstP[1,4]
 G  findWorstP[1,5]
 G  findWorstP[1,6]
 G  findWorstP[1,7]
 G  findWorstP[2,1]
 G  findWorstP[2,3]
 G  findWorstP[2,4]
 G  findWorstP[2,5]
 G  findWorstP[2,6]
 G  findWorstP[2,7]
 G  findWorstP[3,1]
 G  findWorstP[3,2]
 G  findWorstP[3,4]
 G  findWorstP[3,5]
 G  findWorstP[3,6]
 G  findWorstP[3,7]
 G  findWorstP[4,1]
 G  findWorstP[4,2]
 G  findWorstP[4,3]
 G  findWorstP[4,5]
 G  findWorstP[4,6]
 G  findWorstP[4,7]
 G  findWorstP[5,1]
 G  findWorstP[5,2]
 G  findWorstP[5,3]
 G  findWorstP[5,4]
 G  findWorstP[5,6]
 G  findWorstP[5,7]
 G  findWorstP[6,1]
 G  findWorstP[6,2]
 G  findWorstP[6,3]
 G  findWorstP[6,4]
 G  findWorstP[6,5]
 G  findWorstP[6,7]
 G  findWorstP[7,1]
 G  findWorstP[7,2]
 G  findWorstP[7,3]
 G  findWorstP[7,4]
 G  findWorstP[7,5]
 G  findWorstP[7,6]
COLUMNS
    z         OBJ       1
    z         findWorstP[1,2]  1
    z         findWorstP[1,3]  1
    z         findWorstP[1,4]  1
    z         findWorstP[1,5]  1
    z         findWorstP[1,6]  1
    z         findWorstP[1,7]  1
    z         findWorstP[2,1]  1
    z         findWorstP[2,3]  1
    z         findWorstP[2,4]  1
    z         findWorstP[2,5]  1
    z         findWorstP[2,6]  1
    z         findWorstP[2,7]  1
    z         findWorstP[3,1]  1
    z         findWorstP[3,2]  1
    z         findWorstP[3,4]  1
    z         findWorstP[3,5]  1
    z         findWorstP[3,6]  1
    z         findWorstP[3,7]  1
    z         findWorstP[4,1]  1
    z         findWorstP[4,2]  1
    z         findWorstP[4,3]  1
    z         findWorstP[4,5]  1
    z         findWorstP[4,6]  1
    z         findWorstP[4,7]  1
    z         findWorstP[5,1]  1
    z         findWorstP[5,2]  1
    z         findWorstP[5,3]  1
    z         findWorstP[5,4]  1
    z         findWorstP[5,6]  1
    z         findWorstP[5,7]  1
    z         findWorstP[6,1]  1
    z         findWorstP[6,2]  1
    z         findWorstP[6,3]  1
    z         findWorstP[6,4]  1
    z         findWorstP[6,5]  1
    z         findWorstP[6,7]  1
    z         findWorstP[7,1]  1
    z         findWorstP[7,2]  1
    z         findWorstP[7,3]  1
    z         findWorstP[7,4]  1
    z         findWorstP[7,5]  1
    z         findWorstP[7,6]  1
    cashProportion[1]  allocateAllCash  1
    cashProportion[1]  findWorstP[1,2]  1.6419462536259646e-01
    cashProportion[1]  findWorstP[1,3]  1.6419462536259646e-01
    cashProportion[1]  findWorstP[1,4]  1.6419462536259646e-01
    cashProportion[1]  findWorstP[1,5]  1.6419462536259646e-01
    cashProportion[1]  findWorstP[1,6]  1.6419462536259646e-01
    cashProportion[1]  findWorstP[1,7]  1.6419462536259646e-01
    cashProportion[1]  findWorstP[2,1]  -0.410958904109589
    cashProportion[1]  findWorstP[3,1]  -2.8579594169762784e-01
    cashProportion[1]  findWorstP[4,1]  -3.0036043251902284e-01
    cashProportion[1]  findWorstP[5,1]  -3.0278562777553492e-01
    cashProportion[1]  findWorstP[6,1]  -1.7480480130520917e-01
    cashProportion[1]  findWorstP[7,1]  -1.4823599169878446e-01
    cashProportion[2]  allocateAllCash  1
    cashProportion[2]  findWorstP[1,2]  -1.6419462536259646e-01
    cashProportion[2]  findWorstP[2,1]  0.410958904109589
    cashProportion[2]  findWorstP[2,3]  0.410958904109589
    cashProportion[2]  findWorstP[2,4]  0.410958904109589
    cashProportion[2]  findWorstP[2,5]  0.410958904109589
    cashProportion[2]  findWorstP[2,6]  0.410958904109589
    cashProportion[2]  findWorstP[2,7]  0.410958904109589
    cashProportion[2]  findWorstP[3,2]  -2.8579594169762784e-01
    cashProportion[2]  findWorstP[4,2]  -3.0036043251902284e-01
    cashProportion[2]  findWorstP[5,2]  -3.0278562777553492e-01
    cashProportion[2]  findWorstP[6,2]  -1.7480480130520917e-01
    cashProportion[2]  findWorstP[7,2]  -1.4823599169878446e-01
    cashProportion[3]  allocateAllCash  1
    cashProportion[3]  findWorstP[1,3]  -1.6419462536259646e-01
    cashProportion[3]  findWorstP[2,3]  -0.410958904109589
    cashProportion[3]  findWorstP[3,1]  2.8579594169762784e-01
    cashProportion[3]  findWorstP[3,2]  2.8579594169762784e-01
    cashProportion[3]  findWorstP[3,4]  2.8579594169762784e-01
    cashProportion[3]  findWorstP[3,5]  2.8579594169762784e-01
    cashProportion[3]  findWorstP[3,6]  2.8579594169762784e-01
    cashProportion[3]  findWorstP[3,7]  2.8579594169762784e-01
    cashProportion[3]  findWorstP[4,3]  -3.0036043251902284e-01
    cashProportion[3]  findWorstP[5,3]  -3.0278562777553492e-01
    cashProportion[3]  findWorstP[6,3]  -1.7480480130520917e-01
    cashProportion[3]  findWorstP[7,3]  -1.4823599169878446e-01
    cashProportion[4]  allocateAllCash  1
    cashProportion[4]  findWorstP[1,4]  -1.6419462536259646e-01
    cashProportion[4]  findWorstP[2,4]  -0.410958904109589
    cashProportion[4]  findWorstP[3,4]  -2.8579594169762784e-01
    cashProportion[4]  findWorstP[4,1]  3.0036043251902284e-01
    cashProportion[4]  findWorstP[4,2]  3.0036043251902284e-01
    cashProportion[4]  findWorstP[4,3]  3.0036043251902284e-01
    cashProportion[4]  findWorstP[4,5]  3.0036043251902284e-01
    cashProportion[4]  findWorstP[4,6]  3.0036043251902284e-01
    cashProportion[4]  findWorstP[4,7]  3.0036043251902284e-01
    cashProportion[4]  findWorstP[5,4]  -3.0278562777553492e-01
    cashProportion[4]  findWorstP[6,4]  -1.7480480130520917e-01
    cashProportion[4]  findWorstP[7,4]  -1.4823599169878446e-01
    cashProportion[5]  allocateAllCash  1
    cashProportion[5]  findWorstP[1,5]  -1.6419462536259646e-01
    cashProportion[5]  findWorstP[2,5]  -0.410958904109589
    cashProportion[5]  findWorstP[3,5]  -2.8579594169762784e-01
    cashProportion[5]  findWorstP[4,5]  -3.0036043251902284e-01
    cashProportion[5]  findWorstP[5,1]  3.0278562777553492e-01
    cashProportion[5]  findWorstP[5,2]  3.0278562777553492e-01
    cashProportion[5]  findWorstP[5,3]  3.0278562777553492e-01
    cashProportion[5]  findWorstP[5,4]  3.0278562777553492e-01
    cashProportion[5]  findWorstP[5,6]  3.0278562777553492e-01
    cashProportion[5]  findWorstP[5,7]  3.0278562777553492e-01
    cashProportion[5]  findWorstP[6,5]  -1.7480480130520917e-01
    cashProportion[5]  findWorstP[7,5]  -1.4823599169878446e-01
    cashProportion[6]  allocateAllCash  1
    cashProportion[6]  findWorstP[1,6]  -1.6419462536259646e-01
    cashProportion[6]  findWorstP[2,6]  -0.410958904109589
    cashProportion[6]  findWorstP[3,6]  -2.8579594169762784e-01
    cashProportion[6]  findWorstP[4,6]  -3.0036043251902284e-01
    cashProportion[6]  findWorstP[5,6]  -3.0278562777553492e-01
    cashProportion[6]  findWorstP[6,1]  1.7480480130520917e-01
    cashProportion[6]  findWorstP[6,2]  1.7480480130520917e-01
    cashProportion[6]  findWorstP[6,3]  1.7480480130520917e-01
    cashProportion[6]  findWorstP[6,4]  1.7480480130520917e-01
    cashProportion[6]  findWorstP[6,5]  1.7480480130520917e-01
    cashProportion[6]  findWorstP[6,7]  1.7480480130520917e-01
    cashProportion[6]  findWorstP[7,6]  -1.4823599169878446e-01
    cashProportion[7]  allocateAllCash  1
    cashProportion[7]  findWorstP[1,7]  -1.6419462536259646e-01
    cashProportion[7]  findWorstP[2,7]  -0.410958904109589
    cashProportion[7]  findWorstP[3,7]  -2.8579594169762784e-01
    cashProportion[7]  findWorstP[4,7]  -3.0036043251902284e-01
    cashProportion[7]  findWorstP[5,7]  -3.0278562777553492e-01
    cashProportion[7]  findWorstP[6,7]  -1.7480480130520917e-01
    cashProportion[7]  findWorstP[7,1]  1.4823599169878446e-01
    cashProportion[7]  findWorstP[7,2]  1.4823599169878446e-01
    cashProportion[7]  findWorstP[7,3]  1.4823599169878446e-01
    cashProportion[7]  findWorstP[7,4]  1.4823599169878446e-01
    cashProportion[7]  findWorstP[7,5]  1.4823599169878446e-01
    cashProportion[7]  findWorstP[7,6]  1.4823599169878446e-01
    MARKER    'MARKER'                 'INTORG'
    x[1,1]    allocateEach[1]  1
    x[1,1]    findWorstP[1,2]  5.0254501669312024e-01
    x[1,1]    findWorstP[1,3]  5.0254501669312024e-01
    x[1,1]    findWorstP[1,4]  5.0254501669312024e-01
    x[1,1]    findWorstP[1,5]  5.0254501669312024e-01
    x[1,1]    findWorstP[1,6]  5.0254501669312024e-01
    x[1,1]    findWorstP[1,7]  5.0254501669312024e-01
    x[1,1]    findWorstP[2,1]  -5.6383561643835611e-01
    x[1,1]    findWorstP[3,1]  -6.4980470610650665e-01
    x[1,1]    findWorstP[4,1]  -1.2404885863035642e-01
    x[1,1]    findWorstP[5,1]  -1.6572466693580948e-01
    x[1,1]    findWorstP[6,1]  -2.4985432933224566e-01
    x[1,1]    findWorstP[7,1]  -0.400286589583951
    x[1,2]    allocateEach[2]  1
    x[1,2]    findWorstP[1,2]  3.3326035794428333e-01
    x[1,2]    findWorstP[1,3]  3.3326035794428333e-01
    x[1,2]    findWorstP[1,4]  3.3326035794428333e-01
    x[1,2]    findWorstP[1,5]  3.3326035794428333e-01
    x[1,2]    findWorstP[1,6]  3.3326035794428333e-01
    x[1,2]    findWorstP[1,7]  3.3326035794428333e-01
    x[1,2]    findWorstP[2,1]  -2.5205479452054792e-02
    x[1,2]    findWorstP[3,1]  -6.4399352195865470e-02
    x[1,2]    findWorstP[4,1]  -5.7559070885062069e-01
    x[1,2]    findWorstP[5,1]  -5.3148970528865569e-01
    x[1,2]    findWorstP[6,1]  -5.7534086936254514e-01
    x[1,2]    findWorstP[7,1]  -4.5147741871726454e-01
    x[2,1]    allocateEach[1]  1
    x[2,1]    findWorstP[1,2]  -5.0254501669312024e-01
    x[2,1]    findWorstP[2,1]  5.6383561643835611e-01
    x[2,1]    findWorstP[2,3]  5.6383561643835611e-01
    x[2,1]    findWorstP[2,4]  5.6383561643835611e-01
    x[2,1]    findWorstP[2,5]  5.6383561643835611e-01
    x[2,1]    findWorstP[2,6]  5.6383561643835611e-01
    x[2,1]    findWorstP[2,7]  5.6383561643835611e-01
    x[2,1]    findWorstP[3,2]  -6.4980470610650665e-01
    x[2,1]    findWorstP[4,2]  -1.2404885863035642e-01
    x[2,1]    findWorstP[5,2]  -1.6572466693580948e-01
    x[2,1]    findWorstP[6,2]  -2.4985432933224566e-01
    x[2,1]    findWorstP[7,2]  -0.400286589583951
    x[2,2]    allocateEach[2]  1
    x[2,2]    findWorstP[1,2]  -3.3326035794428333e-01
    x[2,2]    findWorstP[2,1]  2.5205479452054792e-02
    x[2,2]    findWorstP[2,3]  2.5205479452054792e-02
    x[2,2]    findWorstP[2,4]  2.5205479452054792e-02
    x[2,2]    findWorstP[2,5]  2.5205479452054792e-02
    x[2,2]    findWorstP[2,6]  2.5205479452054792e-02
    x[2,2]    findWorstP[2,7]  2.5205479452054792e-02
    x[2,2]    findWorstP[3,2]  -6.4399352195865470e-02
    x[2,2]    findWorstP[4,2]  -5.7559070885062069e-01
    x[2,2]    findWorstP[5,2]  -5.3148970528865569e-01
    x[2,2]    findWorstP[6,2]  -5.7534086936254514e-01
    x[2,2]    findWorstP[7,2]  -4.5147741871726454e-01
    x[3,1]    allocateEach[1]  1
    x[3,1]    findWorstP[1,3]  -5.0254501669312024e-01
    x[3,1]    findWorstP[2,3]  -5.6383561643835611e-01
    x[3,1]    findWorstP[3,1]  6.4980470610650665e-01
    x[3,1]    findWorstP[3,2]  6.4980470610650665e-01
    x[3,1]    findWorstP[3,4]  6.4980470610650665e-01
    x[3,1]    findWorstP[3,5]  6.4980470610650665e-01
    x[3,1]    findWorstP[3,6]  6.4980470610650665e-01
    x[3,1]    findWorstP[3,7]  6.4980470610650665e-01
    x[3,1]    findWorstP[4,3]  -1.2404885863035642e-01
    x[3,1]    findWorstP[5,3]  -1.6572466693580948e-01
    x[3,1]    findWorstP[6,3]  -2.4985432933224566e-01
    x[3,1]    findWorstP[7,3]  -0.400286589583951
    x[3,2]    allocateEach[2]  1
    x[3,2]    findWorstP[1,3]  -3.3326035794428333e-01
    x[3,2]    findWorstP[2,3]  -2.5205479452054792e-02
    x[3,2]    findWorstP[3,1]  6.4399352195865470e-02
    x[3,2]    findWorstP[3,2]  6.4399352195865470e-02
    x[3,2]    findWorstP[3,4]  6.4399352195865470e-02
    x[3,2]    findWorstP[3,5]  6.4399352195865470e-02
    x[3,2]    findWorstP[3,6]  6.4399352195865470e-02
    x[3,2]    findWorstP[3,7]  6.4399352195865470e-02
    x[3,2]    findWorstP[4,3]  -5.7559070885062069e-01
    x[3,2]    findWorstP[5,3]  -5.3148970528865569e-01
    x[3,2]    findWorstP[6,3]  -5.7534086936254514e-01
    x[3,2]    findWorstP[7,3]  -4.5147741871726454e-01
    x[4,1]    allocateEach[1]  1
    x[4,1]    findWorstP[1,4]  -5.0254501669312024e-01
    x[4,1]    findWorstP[2,4]  -5.6383561643835611e-01
    x[4,1]    findWorstP[3,4]  -6.4980470610650665e-01
    x[4,1]    findWorstP[4,1]  1.2404885863035642e-01
    x[4,1]    findWorstP[4,2]  1.2404885863035642e-01
    x[4,1]    findWorstP[4,3]  1.2404885863035642e-01
    x[4,1]    findWorstP[4,5]  1.2404885863035642e-01
    x[4,1]    findWorstP[4,6]  1.2404885863035642e-01
    x[4,1]    findWorstP[4,7]  1.2404885863035642e-01
    x[4,1]    findWorstP[5,4]  -1.6572466693580948e-01
    x[4,1]    findWorstP[6,4]  -2.4985432933224566e-01
    x[4,1]    findWorstP[7,4]  -0.400286589583951
    x[4,2]    allocateEach[2]  1
    x[4,2]    findWorstP[1,4]  -3.3326035794428333e-01
    x[4,2]    findWorstP[2,4]  -2.5205479452054792e-02
    x[4,2]    findWorstP[3,4]  -6.4399352195865470e-02
    x[4,2]    findWorstP[4,1]  5.7559070885062069e-01
    x[4,2]    findWorstP[4,2]  5.7559070885062069e-01
    x[4,2]    findWorstP[4,3]  5.7559070885062069e-01
    x[4,2]    findWorstP[4,5]  5.7559070885062069e-01
    x[4,2]    findWorstP[4,6]  5.7559070885062069e-01
    x[4,2]    findWorstP[4,7]  5.7559070885062069e-01
    x[4,2]    findWorstP[5,4]  -5.3148970528865569e-01
    x[4,2]    findWorstP[6,4]  -5.7534086936254514e-01
    x[4,2]    findWorstP[7,4]  -4.5147741871726454e-01
    x[5,1]    allocateEach[1]  1
    x[5,1]    findWorstP[1,5]  -5.0254501669312024e-01
    x[5,1]    findWorstP[2,5]  -5.6383561643835611e-01
    x[5,1]    findWorstP[3,5]  -6.4980470610650665e-01
    x[5,1]    findWorstP[4,5]  -1.2404885863035642e-01
    x[5,1]    findWorstP[5,1]  1.6572466693580948e-01
    x[5,1]    findWorstP[5,2]  1.6572466693580948e-01
    x[5,1]    findWorstP[5,3]  1.6572466693580948e-01
    x[5,1]    findWorstP[5,4]  1.6572466693580948e-01
    x[5,1]    findWorstP[5,6]  1.6572466693580948e-01
    x[5,1]    findWorstP[5,7]  1.6572466693580948e-01
    x[5,1]    findWorstP[6,5]  -2.4985432933224566e-01
    x[5,1]    findWorstP[7,5]  -0.400286589583951
    x[5,2]    allocateEach[2]  1
    x[5,2]    findWorstP[1,5]  -3.3326035794428333e-01
    x[5,2]    findWorstP[2,5]  -2.5205479452054792e-02
    x[5,2]    findWorstP[3,5]  -6.4399352195865470e-02
    x[5,2]    findWorstP[4,5]  -5.7559070885062069e-01
    x[5,2]    findWorstP[5,1]  5.3148970528865569e-01
    x[5,2]    findWorstP[5,2]  5.3148970528865569e-01
    x[5,2]    findWorstP[5,3]  5.3148970528865569e-01
    x[5,2]    findWorstP[5,4]  5.3148970528865569e-01
    x[5,2]    findWorstP[5,6]  5.3148970528865569e-01
    x[5,2]    findWorstP[5,7]  5.3148970528865569e-01
    x[5,2]    findWorstP[6,5]  -5.7534086936254514e-01
    x[5,2]    findWorstP[7,5]  -4.5147741871726454e-01
    x[6,1]    allocateEach[1]  1
    x[6,1]    findWorstP[1,6]  -5.0254501669312024e-01
    x[6,1]    findWorstP[2,6]  -5.6383561643835611e-01
    x[6,1]    findWorstP[3,6]  -6.4980470610650665e-01
    x[6,1]    findWorstP[4,6]  -1.2404885863035642e-01
    x[6,1]    findWorstP[5,6]  -1.6572466693580948e-01
    x[6,1]    findWorstP[6,1]  2.4985432933224566e-01
    x[6,1]    findWorstP[6,2]  2.4985432933224566e-01
    x[6,1]    findWorstP[6,3]  2.4985432933224566e-01
    x[6,1]    findWorstP[6,4]  2.4985432933224566e-01
    x[6,1]    findWorstP[6,5]  2.4985432933224566e-01
    x[6,1]    findWorstP[6,7]  2.4985432933224566e-01
    x[6,1]    findWorstP[7,6]  -0.400286589583951
    x[6,2]    allocateEach[2]  1
    x[6,2]    findWorstP[1,6]  -3.3326035794428333e-01
    x[6,2]    findWorstP[2,6]  -2.5205479452054792e-02
    x[6,2]    findWorstP[3,6]  -6.4399352195865470e-02
    x[6,2]    findWorstP[4,6]  -5.7559070885062069e-01
    x[6,2]    findWorstP[5,6]  -5.3148970528865569e-01
    x[6,2]    findWorstP[6,1]  5.7534086936254514e-01
    x[6,2]    findWorstP[6,2]  5.7534086936254514e-01
    x[6,2]    findWorstP[6,3]  5.7534086936254514e-01
    x[6,2]    findWorstP[6,4]  5.7534086936254514e-01
    x[6,2]    findWorstP[6,5]  5.7534086936254514e-01
    x[6,2]    findWorstP[6,7]  5.7534086936254514e-01
    x[6,2]    findWorstP[7,6]  -4.5147741871726454e-01
    x[7,1]    allocateEach[1]  1
    x[7,1]    findWorstP[1,7]  -5.0254501669312024e-01
    x[7,1]    findWorstP[2,7]  -5.6383561643835611e-01
    x[7,1]    findWorstP[3,7]  -6.4980470610650665e-01
    x[7,1]    findWorstP[4,7]  -1.2404885863035642e-01
    x[7,1]    findWorstP[5,7]  -1.6572466693580948e-01
    x[7,1]    findWorstP[6,7]  -2.4985432933224566e-01
    x[7,1]    findWorstP[7,1]  0.400286589583951
    x[7,1]    findWorstP[7,2]  0.400286589583951
    x[7,1]    findWorstP[7,3]  0.400286589583951
    x[7,1]    findWorstP[7,4]  0.400286589583951
    x[7,1]    findWorstP[7,5]  0.400286589583951
    x[7,1]    findWorstP[7,6]  0.400286589583951
    x[7,2]    allocateEach[2]  1
    x[7,2]    findWorstP[1,7]  -3.3326035794428333e-01
    x[7,2]    findWorstP[2,7]  -2.5205479452054792e-02
    x[7,2]    findWorstP[3,7]  -6.4399352195865470e-02
    x[7,2]    findWorstP[4,7]  -5.7559070885062069e-01
    x[7,2]    findWorstP[5,7]  -5.3148970528865569e-01
    x[7,2]    findWorstP[6,7]  -5.7534086936254514e-01
    x[7,2]    findWorstP[7,1]  4.5147741871726454e-01
    x[7,2]    findWorstP[7,2]  4.5147741871726454e-01
    x[7,2]    findWorstP[7,3]  4.5147741871726454e-01
    x[7,2]    findWorstP[7,4]  4.5147741871726454e-01
    x[7,2]    findWorstP[7,5]  4.5147741871726454e-01
    x[7,2]    findWorstP[7,6]  4.5147741871726454e-01
    MARKER    'MARKER'                 'INTEND'
RHS
    RHS1      allocateEach[1]  1
    RHS1      allocateEach[2]  1
    RHS1      allocateAllCash  1
BOUNDS
 UP BND1      z         1
 MI BND1      cashProportion[1]
 UP BND1      cashProportion[1]  1
 MI BND1      cashProportion[2]
 UP BND1      cashProportion[2]  1
 MI BND1      cashProportion[3]
 UP BND1      cashProportion[3]  1
 MI BND1      cashProportion[4]
 UP BND1      cashProportion[4]  1
 MI BND1      cashProportion[5]
 UP BND1      cashProportion[5]  1
 MI BND1      cashProportion[6]
 UP BND1      cashProportion[6]  1
 MI BND1      cashProportion[7]
 UP BND1      cashProportion[7]  1
 BV BND1      x[1,1]  
 BV BND1      x[1,2]  
 BV BND1      x[2,1]  
 BV BND1      x[2,2]  
 BV BND1      x[3,1]  
 BV BND1      x[3,2]  
 BV BND1      x[4,1]  
 BV BND1      x[4,2]  
 BV BND1      x[5,1]  
 BV BND1      x[5,2]  
 BV BND1      x[6,1]  
 BV BND1      x[6,2]  
 BV BND1      x[7,1]  
 BV BND1      x[7,2]  
ENDATA
